
;this file is automatically generated: Mon Feb 10 17:01:40 CST 2020

;declarations generated

(declare-fun type_7967bec1_db0d_44b9_a68a_aa006549f3bf_Class52 ( Int) Bool)
(declare-fun oclExcludes ( Int Int) Bool)
(declare-fun Cardinality ( Int) Int)
(declare-fun class52_Class52BoolAttr0 ( Int) Bool)
(declare-fun obj_96441d42_7489_43d8_98fd_2fb342a4c472 ( Int) Int)
(declare-fun oclSelect ( Int Bool) Int)
(declare-fun Enum0 ( Int) Int)
(declare-fun Enum1 ( Int) Int)
(declare-fun Enum2 ( Int) Int)
(declare-fun container_ ( Int) Int)
(declare-fun oclIncludes ( Int Int) Bool)
(declare-fun ObjAt ( Int Int) Int)

;formula(s) generated
(assert (! (forall ((v Int)) (=> ( type_7967bec1_db0d_44b9_a68a_aa006549f3bf_Class52 v )  (not ( class52_Class52BoolAttr0 ( obj_96441d42_7489_43d8_98fd_2fb342a4c472 v )  )  ))):named l0))
(assert (exists ((o Int)) ( type_7967bec1_db0d_44b9_a68a_aa006549f3bf_Class52 ( obj_96441d42_7489_43d8_98fd_2fb342a4c472 o )  ) ))

 ;end of formula 